c "175203.clq"
p edge 140 544
e 1 5
e 1 9
e 1 14
e 1 15
e 1 17
e 1 22
e 1 24
e 1 31
e 1 36
e 1 53
e 1 82
e 1 103
e 1 108
e 1 109
e 1 111
e 1 139
e 2 5
e 2 6
e 2 7
e 2 8
e 2 9
e 2 16
e 2 18
e 2 23
e 2 27
e 2 33
e 2 34
e 2 45
e 2 46
e 2 47
e 2 49
e 2 67
e 2 75
e 2 79
e 2 82
e 2 86
e 2 120
e 2 136
e 3 5
e 3 6
e 3 8
e 3 10
e 3 15
e 3 24
e 3 29
e 3 35
e 3 42
e 3 51
e 3 56
e 3 62
e 3 63
e 3 66
e 3 67
e 3 68
e 3 73
e 3 76
e 3 83
e 3 104
e 3 116
e 4 5
e 4 6
e 4 7
e 4 8
e 4 10
e 4 13
e 4 20
e 4 22
e 4 26
e 4 31
e 4 32
e 4 34
e 4 35
e 4 37
e 4 40
e 4 49
e 4 50
e 4 59
e 4 62
e 4 65
e 4 69
e 4 75
e 4 78
e 4 81
e 4 84
e 4 85
e 4 91
e 4 92
e 4 117
e 4 121
e 4 123
e 4 126
e 4 133
e 5 6
e 5 7
e 5 8
e 5 11
e 5 12
e 5 13
e 5 15
e 5 18
e 5 19
e 5 27
e 5 30
e 5 32
e 5 38
e 5 40
e 5 46
e 5 55
e 5 58
e 5 60
e 5 69
e 5 74
e 5 77
e 5 83
e 5 117
e 5 133
e 6 7
e 6 9
e 6 10
e 6 11
e 6 12
e 6 16
e 6 17
e 6 18
e 6 22
e 6 64
e 6 87
e 6 94
e 6 102
e 6 107
e 6 113
e 7 9
e 7 10
e 7 11
e 7 13
e 7 17
e 7 18
e 7 19
e 7 20
e 7 21
e 7 28
e 7 30
e 7 35
e 7 37
e 7 48
e 7 50
e 7 57
e 7 63
e 7 67
e 7 80
e 7 93
e 7 127
e 8 23
e 8 26
e 8 41
e 8 50
e 8 55
e 8 63
e 8 72
e 8 98
e 9 13
e 9 34
e 9 48
e 9 54
e 9 73
e 9 88
e 10 11
e 10 12
e 10 19
e 10 21
e 10 25
e 10 32
e 10 36
e 10 38
e 10 40
e 10 41
e 10 43
e 10 47
e 10 51
e 10 56
e 10 60
e 10 70
e 10 72
e 10 91
e 10 97
e 10 105
e 10 114
e 10 119
e 10 120
e 10 138
e 10 139
e 10 140
e 11 12
e 11 14
e 11 16
e 11 22
e 11 23
e 11 26
e 11 35
e 11 94
e 11 115
e 11 120
e 12 14
e 12 15
e 12 40
e 12 45
e 12 52
e 12 62
e 12 75
e 12 79
e 12 98
e 12 131
e 12 134
e 13 14
e 13 19
e 13 23
e 13 33
e 13 46
e 13 49
e 13 52
e 13 64
e 13 86
e 13 96
e 13 109
e 13 112
e 13 126
e 13 127
e 13 138
e 14 17
e 14 21
e 14 25
e 14 56
e 14 78
e 14 92
e 14 94
e 14 112
e 14 119
e 14 137
e 15 16
e 15 25
e 15 28
e 15 60
e 15 65
e 15 74
e 15 78
e 15 96
e 15 97
e 15 100
e 15 103
e 15 105
e 15 107
e 16 27
e 16 42
e 16 50
e 16 61
e 16 122
e 16 123
e 16 128
e 17 20
e 17 26
e 17 28
e 17 30
e 17 34
e 17 43
e 17 51
e 17 52
e 17 79
e 17 89
e 17 95
e 17 97
e 17 122
e 17 132
e 17 139
e 18 20
e 18 43
e 18 51
e 18 58
e 18 61
e 18 66
e 18 69
e 18 115
e 18 118
e 18 119
e 19 21
e 19 37
e 19 38
e 19 44
e 19 49
e 19 71
e 19 76
e 19 77
e 19 79
e 19 87
e 19 93
e 20 24
e 20 29
e 20 31
e 20 52
e 20 58
e 20 72
e 20 99
e 20 106
e 20 129
e 21 25
e 21 29
e 21 42
e 21 58
e 21 59
e 21 84
e 21 89
e 21 92
e 21 110
e 21 139
e 22 29
e 22 31
e 22 42
e 22 56
e 22 71
e 22 80
e 22 81
e 22 106
e 23 24
e 23 30
e 23 57
e 23 61
e 23 62
e 24 27
e 24 39
e 24 44
e 24 48
e 24 54
e 24 90
e 24 134
e 25 33
e 25 123
e 25 136
e 26 28
e 26 48
e 26 66
e 26 68
e 26 74
e 26 82
e 26 85
e 26 87
e 26 95
e 26 96
e 26 101
e 26 125
e 26 132
e 27 41
e 27 53
e 27 74
e 27 84
e 27 96
e 27 107
e 27 112
e 28 41
e 28 44
e 28 57
e 28 95
e 28 106
e 28 114
e 28 121
e 28 135
e 28 140
e 29 36
e 29 39
e 29 70
e 29 73
e 30 33
e 30 38
e 30 43
e 30 55
e 30 84
e 30 90
e 30 108
e 30 112
e 30 122
e 31 32
e 31 46
e 31 71
e 31 88
e 31 125
e 32 54
e 32 57
e 32 110
e 32 114
e 32 136
e 33 68
e 33 69
e 33 101
e 33 114
e 33 124
e 33 133
e 34 37
e 34 59
e 34 127
e 34 138
e 35 36
e 35 64
e 35 120
e 36 39
e 36 45
e 36 53
e 36 59
e 36 76
e 37 39
e 37 109
e 37 134
e 38 44
e 38 54
e 38 76
e 38 80
e 38 100
e 38 137
e 39 67
e 39 121
e 40 65
e 40 73
e 40 100
e 40 124
e 40 127
e 40 133
e 41 47
e 41 66
e 41 71
e 41 77
e 41 101
e 41 118
e 42 47
e 42 81
e 42 94
e 42 125
e 43 61
e 43 70
e 43 91
e 43 137
e 43 140
e 44 45
e 44 55
e 44 88
e 44 100
e 44 102
e 44 109
e 44 110
e 44 115
e 44 116
e 44 135
e 45 99
e 46 64
e 46 83
e 46 106
e 47 86
e 48 99
e 49 53
e 49 60
e 49 72
e 49 104
e 49 132
e 50 125
e 51 68
e 52 63
e 52 103
e 52 111
e 52 130
e 52 135
e 53 88
e 53 93
e 53 102
e 53 116
e 53 131
e 54 89
e 54 95
e 54 103
e 54 108
e 54 121
e 57 80
e 57 105
e 60 82
e 60 129
e 61 110
e 62 65
e 62 101
e 64 78
e 64 89
e 64 98
e 64 104
e 65 70
e 65 83
e 65 85
e 65 90
e 65 102
e 65 111
e 65 113
e 65 135
e 66 128
e 67 77
e 68 137
e 69 85
e 69 87
e 69 105
e 69 118
e 69 124
e 70 130
e 73 81
e 74 75
e 74 113
e 74 131
e 75 115
e 76 90
e 77 98
e 77 122
e 78 86
e 79 104
e 79 130
e 81 91
e 81 108
e 82 128
e 82 134
e 84 119
e 84 124
e 86 93
e 86 140
e 88 92
e 89 116
e 91 97
e 91 111
e 92 113
e 92 118
e 93 107
e 93 117
e 96 99
e 104 136
e 106 126
e 110 117
e 113 123
e 116 128
e 117 132
e 118 131
e 119 130
e 120 126
e 121 129
e 125 129
e 129 138
